2 4 3 4 1 4 2 1 3
0 2 1 5 1 4 6 9 1 6
0 0 1 2 1 1 9 5 1 3
0 0 0 8 2 8 3 1 5 5
0 0 0 0 8 1 5 2 3 2
0 0 0 0 0 1 9 4 6 1
0 0 0 0 0 0 1 5 9 9
0 0 0 0 0 0 0 1 1 6
0 0 0 0 0 0 0 0 6 2
0 0 0 0 0 0 0 0 0 7
0 0 0 0 0 0 0 0 0 0
